dataset/large-228.in
50
85.0
0 49 1.0 0.91
1 48 1.0 0.83
2 47 1.0 0.9
3 46 1.0 0.94
4 45 1.0 0.88
5 44 1.0 0.9
6 43 1.0 0.83
7 42 1.0 0.91
8 41 1.0 0.91
9 40 1.0 0.84
10 39 1.0 0.94
11 38 1.0 0.93
12 37 1.0 0.95
13 36 1.0 0.83
14 35 1.0 0.85
15 34 1.0 0.87
16 33 1.0 0.84
17 32 1.0 0.89
18 31 1.0 0.91
19 30 1.0 0.91
20 29 1.0 0.88
21 28 1.0 0.97
22 27 1.0 0.83
23 26 1.0 0.86
24 25 1.0 0.86
25 24 1.0 0.89
26 23 1.0 0.92
27 22 1.0 0.96
28 21 1.0 1.0
29 20 1.0 0.91
30 19 1.0 1.0
31 18 1.0 0.95
32 17 1.0 0.89
33 16 1.0 0.89
34 15 1.0 0.88
35 14 1.0 0.81
36 13 1.0 0.93
37 12 1.0 0.85
38 11 1.0 0.92
39 10 1.0 0.91
40 9 1.0 1.0
41 8 1.0 1.0
42 7 1.0 0.74
43 6 1.0 1.0
44 5 1.0 0.82
45 4 1.0 0.78
46 3 1.0 1.0
47 2 1.0 1.0
48 1 1.0 1.0
